p cnf 50 15
x -1 2 -3 4 -5 6 7 -8 -11 13 15 -17 20 -21 -24 25 28 30 -31 -33 34 36 38 -42 -43 -45 -46 47 48 49 0
x -3 5 -9 10 -12 -15 -16 -17 -18 20 21 23 -25 -26 -27 30 31 35 36 38 -46 48 0
x -1 2 3 -5 -6 7 -15 -16 -17 -18 20 24 -25 -28 -29 30 32 -34 35 -40 41 -42 -44 47 50 0
x 4 5 -6 7 9 -10 -13 14 -16 17 18 -19 22 24 -26 29 -30 -37 38 39 -40 -41 -45 50 0
x 1 2 -3 8 -9 -10 -12 -14 16 19 -21 -25 26 27 29 30 31 -34 35 -37 38 -40 -41 42 -43 -44 45 -46 47 -48 49 -50 0
x -1 2 -4 5 6 -11 12 -15 16 -17 21 -23 -24 25 27 -31 -34 35 -36 -38 40 -41 42 -43 -47 48 -49 50 0
x 4 5 6 -11 -12 -16 -17 20 21 22 24 25 26 27 29 -30 32 34 -37 -39 43 -46 49 50 0
x -1 8 9 11 -12 -14 16 18 -22 27 28 29 -32 33 -35 36 38 -40 -41 44 47 48 -50 0
x 1 -7 10 11 12 -13 14 -15 -17 -18 -23 -25 -26 -27 -28 32 -35 -38 39 -40 43 44 -46 -47 -48 50 0
x 1 3 5 -6 7 -9 11 13 -14 15 -17 19 -20 23 -25 -28 -29 31 34 36 -37 38 -39 -40 -41 -42 -44 46 49 0
x -1 4 -5 6 8 9 11 -12 -15 19 -22 -23 24 -27 28 -29 -30 -31 32 -33 -34 36 37 -39 40 -41 49 0
x -6 9 10 16 18 19 -21 23 26 29 30 -32 -34 35 37 38 -39 40 42 43 44 46 -47 -48 -49 50 0
x 1 2 -5 -7 -8 -11 -15 -16 -17 -19 20 22 24 -25 26 -28 32 34 35 36 -42 -43 45 47 0
x -1 -2 -3 4 -6 8 9 -11 -12 15 16 -20 -21 -23 -24 25 -30 -31 -32 -33 -34 -36 -38 -39 -42 -45 -46 47 -49 -50 0
x 1 -4 -6 7 8 -10 16 17 -18 22 -23 26 -29 30 31 -34 -35 -36 38 39 -41 44 45 -47 48 49 0
g -20